p edge 1628 1593
e 1 2
e 1 3
e 1 4
e 1 5
e 1 6
e 1 7
e 1 8
e 1 9
e 1 10
e 1 11
e 1 12
e 1 13
e 1 14
e 1 15
e 1 16
e 1 17
e 1 18
e 1 19
e 1 20
e 1 21
e 1 22
e 1 23
e 1 24
e 1 25
e 1 26
e 1 27
e 1 28
e 1 29
e 1 30
e 1 31
e 1 32
e 1 33
e 1 34
e 1 35
e 1 36
e 1 37
e 1 38
e 1 39
e 1 40
e 1 41
e 1 42
e 1 43
e 1 44
e 1 45
e 1 46
e 1 47
e 1 48
e 1 49
e 1 50
e 1 51
e 1 52
e 1 53
e 1 54
e 55 56
e 55 57
e 55 58
e 55 59
e 55 60
e 55 61
e 55 62
e 55 63
e 55 64
e 55 65
e 55 66
e 55 67
e 55 68
e 55 69
e 55 70
e 55 71
e 55 72
e 55 73
e 55 74
e 55 75
e 55 76
e 55 77
e 55 78
e 55 79
e 55 80
e 55 81
e 55 82
e 55 83
e 55 84
e 55 85
e 55 86
e 55 87
e 55 88
e 55 89
e 55 90
e 55 91
e 55 92
e 55 93
e 55 94
e 55 95
e 55 96
e 55 97
e 55 98
e 55 99
e 55 100
e 55 101
e 55 102
e 55 103
e 55 104
e 55 105
e 55 106
e 55 107
e 55 108
e 55 109
e 55 110
e 55 111
e 55 112
e 55 113
e 55 114
e 55 115
e 55 116
e 55 117
e 55 118
e 55 119
e 120 121
e 120 122
e 120 123
e 120 124
e 120 125
e 120 126
e 120 127
e 120 128
e 120 129
e 120 130
e 120 131
e 120 132
e 120 133
e 120 134
e 120 135
e 120 136
e 120 137
e 120 138
e 120 139
e 120 140
e 120 141
e 120 142
e 120 143
e 120 144
e 120 145
e 120 146
e 120 147
e 120 148
e 120 149
e 120 150
e 120 151
e 120 152
e 120 153
e 120 154
e 120 155
e 120 156
e 120 157
e 120 158
e 120 159
e 120 160
e 120 161
e 120 162
e 120 163
e 120 164
e 120 165
e 120 166
e 120 167
e 120 168
e 120 169
e 120 170
e 120 171
e 120 172
e 120 173
e 120 174
e 120 175
e 120 176
e 120 177
e 120 178
e 120 179
e 120 180
e 120 181
e 120 182
e 120 183
e 120 184
e 120 185
e 120 186
e 120 187
e 120 188
e 120 189
e 120 190
e 120 191
e 120 192
e 120 193
e 120 194
e 120 195
e 120 196
e 120 197
e 120 198
e 120 199
e 120 200
e 201 202
e 201 203
e 201 204
e 201 205
e 201 206
e 201 207
e 201 208
e 201 209
e 201 210
e 201 211
e 201 212
e 201 213
e 201 214
e 201 215
e 201 216
e 201 217
e 201 218
e 201 219
e 201 220
e 201 221
e 222 223
e 222 224
e 222 225
e 222 226
e 222 227
e 222 228
e 222 229
e 222 230
e 222 231
e 222 232
e 222 233
e 222 234
e 222 235
e 222 236
e 222 237
e 222 238
e 222 239
e 222 240
e 222 241
e 222 242
e 222 243
e 222 244
e 222 245
e 222 246
e 222 247
e 222 248
e 222 249
e 222 250
e 222 251
e 222 252
e 222 253
e 222 254
e 222 255
e 222 256
e 222 257
e 222 258
e 222 259
e 222 260
e 222 261
e 222 262
e 222 263
e 222 264
e 222 265
e 222 266
e 222 267
e 222 268
e 222 269
e 222 270
e 222 271
e 222 272
e 222 273
e 222 274
e 222 275
e 276 277
e 276 278
e 276 279
e 276 280
e 276 281
e 276 282
e 276 283
e 276 284
e 276 285
e 276 286
e 276 287
e 276 288
e 276 289
e 276 290
e 276 291
e 276 292
e 276 293
e 276 294
e 276 295
e 276 296
e 276 297
e 276 298
e 276 299
e 276 300
e 276 301
e 276 302
e 276 303
e 276 304
e 276 305
e 276 306
e 276 307
e 276 308
e 276 309
e 276 310
e 276 311
e 276 312
e 276 313
e 276 314
e 276 315
e 276 316
e 276 317
e 276 318
e 276 319
e 276 320
e 276 321
e 276 322
e 276 323
e 276 324
e 276 325
e 276 326
e 276 327
e 276 328
e 276 329
e 276 330
e 276 331
e 276 332
e 276 333
e 276 334
e 276 335
e 276 336
e 276 337
e 276 338
e 276 339
e 276 340
e 276 341
e 276 342
e 276 343
e 276 344
e 276 345
e 276 346
e 276 347
e 276 348
e 276 349
e 276 350
e 276 351
e 276 352
e 276 353
e 276 354
e 355 356
e 355 357
e 355 358
e 355 359
e 355 360
e 355 361
e 355 362
e 355 363
e 355 364
e 355 365
e 355 366
e 355 367
e 355 368
e 355 369
e 355 370
e 355 371
e 355 372
e 355 373
e 355 374
e 355 375
e 355 376
e 355 377
e 355 378
e 355 379
e 355 380
e 355 381
e 355 382
e 355 383
e 355 384
e 355 385
e 355 386
e 355 387
e 355 388
e 355 389
e 355 390
e 355 391
e 355 392
e 355 393
e 355 394
e 355 395
e 355 396
e 355 397
e 355 398
e 355 399
e 355 400
e 355 401
e 355 402
e 355 403
e 355 404
e 355 405
e 355 406
e 355 407
e 355 408
e 355 409
e 355 410
e 355 411
e 355 412
e 355 413
e 355 414
e 355 415
e 355 416
e 355 417
e 355 418
e 355 419
e 355 420
e 355 421
e 355 422
e 355 423
e 355 424
e 355 425
e 355 426
e 355 427
e 355 428
e 355 429
e 355 430
e 431 432
e 431 433
e 431 434
e 431 435
e 431 436
e 431 437
e 431 438
e 431 439
e 431 440
e 431 441
e 431 442
e 431 443
e 431 444
e 431 445
e 431 446
e 431 447
e 431 448
e 431 449
e 431 450
e 431 451
e 431 452
e 431 453
e 431 454
e 431 455
e 431 456
e 431 457
e 431 458
e 459 460
e 459 461
e 459 462
e 459 463
e 459 464
e 459 465
e 459 466
e 459 467
e 459 468
e 459 469
e 459 470
e 459 471
e 459 472
e 459 473
e 474 475
e 474 476
e 474 477
e 474 478
e 474 479
e 474 480
e 474 481
e 474 482
e 474 483
e 474 484
e 474 485
e 474 486
e 474 487
e 474 488
e 474 489
e 474 490
e 474 491
e 492 493
e 492 494
e 492 495
e 492 496
e 492 497
e 492 498
e 492 499
e 492 500
e 492 501
e 492 502
e 492 503
e 492 504
e 492 505
e 492 506
e 492 507
e 492 508
e 492 509
e 492 510
e 492 511
e 492 512
e 492 513
e 514 515
e 514 516
e 514 517
e 514 518
e 514 519
e 514 520
e 514 521
e 514 522
e 514 523
e 514 524
e 514 525
e 514 526
e 514 527
e 514 528
e 514 529
e 514 530
e 514 531
e 514 532
e 514 533
e 514 534
e 514 535
e 514 536
e 514 537
e 514 538
e 514 539
e 514 540
e 514 541
e 514 542
e 514 543
e 514 544
e 514 545
e 514 546
e 514 547
e 514 548
e 514 549
e 514 550
e 514 551
e 514 552
e 514 553
e 514 554
e 514 555
e 514 556
e 514 557
e 514 558
e 514 559
e 514 560
e 514 561
e 514 562
e 514 563
e 514 564
e 514 565
e 514 566
e 514 567
e 514 568
e 514 569
e 514 570
e 514 571
e 514 572
e 514 573
e 574 575
e 574 576
e 574 577
e 574 578
e 574 579
e 574 580
e 574 581
e 574 582
e 574 583
e 574 584
e 574 585
e 574 586
e 574 587
e 574 588
e 574 589
e 574 590
e 574 591
e 574 592
e 574 593
e 574 594
e 574 595
e 574 596
e 574 597
e 574 598
e 574 599
e 574 600
e 574 601
e 574 602
e 574 603
e 574 604
e 574 605
e 574 606
e 574 607
e 574 608
e 574 609
e 574 610
e 574 611
e 574 612
e 574 613
e 574 614
e 574 615
e 574 616
e 574 617
e 574 618
e 574 619
e 574 620
e 574 621
e 574 622
e 574 623
e 574 624
e 574 625
e 574 626
e 574 627
e 574 628
e 574 629
e 574 630
e 574 631
e 574 632
e 574 633
e 634 635
e 634 636
e 634 637
e 634 638
e 634 639
e 634 640
e 634 641
e 634 642
e 634 643
e 634 644
e 634 645
e 634 646
e 634 647
e 634 648
e 634 649
e 634 650
e 634 651
e 634 652
e 634 653
e 634 654
e 634 655
e 634 656
e 634 657
e 634 658
e 634 659
e 634 660
e 634 661
e 634 662
e 634 663
e 634 664
e 634 665
e 634 666
e 634 667
e 634 668
e 634 669
e 634 670
e 634 671
e 634 672
e 634 673
e 634 674
e 634 675
e 634 676
e 634 677
e 634 678
e 634 679
e 634 680
e 634 681
e 634 682
e 634 683
e 634 684
e 685 686
e 685 687
e 685 688
e 685 689
e 685 690
e 685 691
e 685 692
e 685 693
e 685 694
e 685 695
e 685 696
e 685 697
e 685 698
e 685 699
e 685 700
e 685 701
e 685 702
e 685 703
e 685 704
e 685 705
e 685 706
e 685 707
e 685 708
e 685 709
e 685 710
e 685 711
e 685 712
e 685 713
e 685 714
e 685 715
e 685 716
e 717 718
e 717 719
e 717 720
e 717 721
e 717 722
e 717 723
e 717 724
e 717 725
e 717 726
e 717 727
e 717 728
e 717 729
e 717 730
e 717 731
e 717 732
e 717 733
e 717 734
e 717 735
e 717 736
e 717 737
e 717 738
e 717 739
e 717 740
e 717 741
e 717 742
e 717 743
e 717 744
e 717 745
e 717 746
e 747 748
e 747 749
e 747 750
e 747 751
e 747 752
e 747 753
e 747 754
e 747 755
e 747 756
e 747 757
e 747 758
e 747 759
e 747 760
e 747 761
e 747 762
e 747 763
e 747 764
e 747 765
e 747 766
e 747 767
e 747 768
e 747 769
e 747 770
e 747 771
e 747 772
e 747 773
e 747 774
e 747 775
e 747 776
e 747 777
e 747 778
e 747 779
e 747 780
e 747 781
e 747 782
e 747 783
e 747 784
e 747 785
e 747 786
e 747 787
e 747 788
e 747 789
e 747 790
e 747 791
e 747 792
e 747 793
e 794 795
e 794 796
e 794 797
e 794 798
e 794 799
e 794 800
e 794 801
e 794 802
e 794 803
e 794 804
e 794 805
e 794 806
e 794 807
e 794 808
e 794 809
e 794 810
e 794 811
e 794 812
e 794 813
e 794 814
e 794 815
e 794 816
e 794 817
e 794 818
e 794 819
e 794 820
e 794 821
e 794 822
e 794 823
e 794 824
e 794 825
e 794 826
e 794 827
e 828 829
e 828 830
e 828 831
e 828 832
e 828 833
e 828 834
e 828 835
e 828 836
e 828 837
e 828 838
e 828 839
e 828 840
e 828 841
e 828 842
e 828 843
e 828 844
e 828 845
e 828 846
e 828 847
e 828 848
e 828 849
e 828 850
e 828 851
e 828 852
e 828 853
e 828 854
e 828 855
e 828 856
e 828 857
e 828 858
e 828 859
e 828 860
e 828 861
e 828 862
e 828 863
e 828 864
e 828 865
e 828 866
e 828 867
e 828 868
e 828 869
e 828 870
e 828 871
e 828 872
e 828 873
e 828 874
e 828 875
e 828 876
e 828 877
e 828 878
e 828 879
e 828 880
e 881 882
e 881 883
e 881 884
e 881 885
e 881 886
e 881 887
e 881 888
e 881 889
e 881 890
e 881 891
e 881 892
e 881 893
e 881 894
e 881 895
e 881 896
e 881 897
e 881 898
e 881 899
e 881 900
e 881 901
e 881 902
e 881 903
e 881 904
e 881 905
e 881 906
e 881 907
e 881 908
e 881 909
e 881 910
e 881 911
e 881 912
e 881 913
e 881 914
e 881 915
e 881 916
e 881 917
e 881 918
e 881 919
e 881 920
e 881 921
e 881 922
e 881 923
e 881 924
e 881 925
e 881 926
e 881 927
e 881 928
e 881 929
e 881 930
e 881 931
e 881 932
e 881 933
e 881 934
e 881 935
e 881 936
e 881 937
e 881 938
e 881 939
e 881 940
e 881 941
e 881 942
e 881 943
e 881 944
e 881 945
e 881 946
e 881 947
e 881 948
e 881 949
e 881 950
e 881 951
e 881 952
e 881 953
e 881 954
e 881 955
e 956 957
e 956 958
e 956 959
e 956 960
e 956 961
e 956 962
e 956 963
e 956 964
e 956 965
e 956 966
e 967 968
e 967 969
e 967 970
e 967 971
e 967 972
e 967 973
e 967 974
e 967 975
e 967 976
e 967 977
e 967 978
e 967 979
e 967 980
e 967 981
e 967 982
e 967 983
e 967 984
e 967 985
e 967 986
e 967 987
e 967 988
e 967 989
e 967 990
e 967 991
e 967 992
e 967 993
e 967 994
e 967 995
e 967 996
e 967 997
e 967 998
e 967 999
e 967 1000
e 967 1001
e 967 1002
e 967 1003
e 967 1004
e 1005 1006
e 1005 1007
e 1005 1008
e 1005 1009
e 1005 1010
e 1005 1011
e 1005 1012
e 1005 1013
e 1005 1014
e 1005 1015
e 1016 1017
e 1016 1018
e 1016 1019
e 1016 1020
e 1016 1021
e 1016 1022
e 1016 1023
e 1016 1024
e 1016 1025
e 1016 1026
e 1016 1027
e 1016 1028
e 1016 1029
e 1016 1030
e 1016 1031
e 1016 1032
e 1016 1033
e 1016 1034
e 1016 1035
e 1016 1036
e 1016 1037
e 1016 1038
e 1016 1039
e 1016 1040
e 1016 1041
e 1016 1042
e 1016 1043
e 1016 1044
e 1016 1045
e 1016 1046
e 1016 1047
e 1016 1048
e 1016 1049
e 1016 1050
e 1016 1051
e 1016 1052
e 1016 1053
e 1016 1054
e 1016 1055
e 1016 1056
e 1016 1057
e 1016 1058
e 1016 1059
e 1016 1060
e 1016 1061
e 1016 1062
e 1016 1063
e 1016 1064
e 1016 1065
e 1016 1066
e 1067 1068
e 1067 1069
e 1067 1070
e 1067 1071
e 1067 1072
e 1067 1073
e 1067 1074
e 1067 1075
e 1067 1076
e 1067 1077
e 1067 1078
e 1067 1079
e 1067 1080
e 1067 1081
e 1067 1082
e 1067 1083
e 1067 1084
e 1067 1085
e 1067 1086
e 1067 1087
e 1067 1088
e 1067 1089
e 1067 1090
e 1067 1091
e 1067 1092
e 1067 1093
e 1067 1094
e 1067 1095
e 1067 1096
e 1067 1097
e 1067 1098
e 1067 1099
e 1067 1100
e 1067 1101
e 1067 1102
e 1067 1103
e 1067 1104
e 1067 1105
e 1067 1106
e 1067 1107
e 1067 1108
e 1067 1109
e 1067 1110
e 1067 1111
e 1067 1112
e 1067 1113
e 1067 1114
e 1067 1115
e 1067 1116
e 1067 1117
e 1118 1119
e 1118 1120
e 1118 1121
e 1118 1122
e 1118 1123
e 1118 1124
e 1118 1125
e 1118 1126
e 1118 1127
e 1118 1128
e 1118 1129
e 1118 1130
e 1118 1131
e 1118 1132
e 1118 1133
e 1118 1134
e 1118 1135
e 1118 1136
e 1118 1137
e 1118 1138
e 1118 1139
e 1118 1140
e 1118 1141
e 1118 1142
e 1118 1143
e 1118 1144
e 1145 1146
e 1145 1147
e 1145 1148
e 1145 1149
e 1145 1150
e 1145 1151
e 1145 1152
e 1145 1153
e 1145 1154
e 1145 1155
e 1145 1156
e 1145 1157
e 1145 1158
e 1145 1159
e 1145 1160
e 1145 1161
e 1145 1162
e 1145 1163
e 1145 1164
e 1145 1165
e 1145 1166
e 1145 1167
e 1145 1168
e 1145 1169
e 1145 1170
e 1145 1171
e 1172 1173
e 1172 1174
e 1172 1175
e 1172 1176
e 1172 1177
e 1172 1178
e 1172 1179
e 1172 1180
e 1172 1181
e 1172 1182
e 1172 1183
e 1172 1184
e 1172 1185
e 1172 1186
e 1172 1187
e 1172 1188
e 1172 1189
e 1172 1190
e 1172 1191
e 1172 1192
e 1172 1193
e 1172 1194
e 1172 1195
e 1172 1196
e 1172 1197
e 1172 1198
e 1172 1199
e 1172 1200
e 1172 1201
e 1172 1202
e 1172 1203
e 1172 1204
e 1172 1205
e 1172 1206
e 1172 1207
e 1172 1208
e 1172 1209
e 1172 1210
e 1172 1211
e 1172 1212
e 1172 1213
e 1172 1214
e 1172 1215
e 1172 1216
e 1217 1218
e 1217 1219
e 1217 1220
e 1217 1221
e 1217 1222
e 1217 1223
e 1217 1224
e 1217 1225
e 1217 1226
e 1217 1227
e 1217 1228
e 1217 1229
e 1217 1230
e 1217 1231
e 1217 1232
e 1217 1233
e 1217 1234
e 1217 1235
e 1217 1236
e 1217 1237
e 1217 1238
e 1239 1240
e 1239 1241
e 1239 1242
e 1239 1243
e 1239 1244
e 1239 1245
e 1239 1246
e 1239 1247
e 1239 1248
e 1239 1249
e 1239 1250
e 1239 1251
e 1239 1252
e 1239 1253
e 1239 1254
e 1239 1255
e 1239 1256
e 1239 1257
e 1239 1258
e 1239 1259
e 1239 1260
e 1239 1261
e 1239 1262
e 1239 1263
e 1239 1264
e 1239 1265
e 1239 1266
e 1239 1267
e 1239 1268
e 1239 1269
e 1239 1270
e 1239 1271
e 1239 1272
e 1239 1273
e 1239 1274
e 1239 1275
e 1239 1276
e 1239 1277
e 1239 1278
e 1239 1279
e 1239 1280
e 1239 1281
e 1239 1282
e 1239 1283
e 1239 1284
e 1239 1285
e 1239 1286
e 1239 1287
e 1239 1288
e 1239 1289
e 1239 1290
e 1239 1291
e 1239 1292
e 1239 1293
e 1239 1294
e 1239 1295
e 1239 1296
e 1239 1297
e 1239 1298
e 1239 1299
e 1239 1300
e 1239 1301
e 1239 1302
e 1239 1303
e 1239 1304
e 1239 1305
e 1239 1306
e 1239 1307
e 1239 1308
e 1239 1309
e 1239 1310
e 1239 1311
e 1239 1312
e 1239 1313
e 1239 1314
e 1239 1315
e 1239 1316
e 1239 1317
e 1318 1319
e 1318 1320
e 1318 1321
e 1318 1322
e 1318 1323
e 1318 1324
e 1318 1325
e 1318 1326
e 1318 1327
e 1318 1328
e 1318 1329
e 1318 1330
e 1318 1331
e 1318 1332
e 1318 1333
e 1318 1334
e 1318 1335
e 1318 1336
e 1318 1337
e 1318 1338
e 1318 1339
e 1318 1340
e 1318 1341
e 1318 1342
e 1318 1343
e 1318 1344
e 1318 1345
e 1318 1346
e 1318 1347
e 1318 1348
e 1318 1349
e 1318 1350
e 1318 1351
e 1318 1352
e 1318 1353
e 1318 1354
e 1318 1355
e 1318 1356
e 1318 1357
e 1318 1358
e 1318 1359
e 1318 1360
e 1318 1361
e 1318 1362
e 1318 1363
e 1318 1364
e 1318 1365
e 1318 1366
e 1318 1367
e 1318 1368
e 1318 1369
e 1318 1370
e 1318 1371
e 1318 1372
e 1318 1373
e 1318 1374
e 1318 1375
e 1318 1376
e 1318 1377
e 1318 1378
e 1318 1379
e 1318 1380
e 1318 1381
e 1318 1382
e 1318 1383
e 1318 1384
e 1318 1385
e 1318 1386
e 1318 1387
e 1318 1388
e 1318 1389
e 1318 1390
e 1318 1391
e 1318 1392
e 1318 1393
e 1318 1394
e 1318 1395
e 1318 1396
e 1397 1398
e 1397 1399
e 1397 1400
e 1397 1401
e 1397 1402
e 1397 1403
e 1397 1404
e 1397 1405
e 1397 1406
e 1397 1407
e 1397 1408
e 1397 1409
e 1397 1410
e 1397 1411
e 1397 1412
e 1397 1413
e 1397 1414
e 1397 1415
e 1397 1416
e 1397 1417
e 1397 1418
e 1397 1419
e 1397 1420
e 1397 1421
e 1397 1422
e 1397 1423
e 1397 1424
e 1397 1425
e 1397 1426
e 1397 1427
e 1397 1428
e 1397 1429
e 1397 1430
e 1397 1431
e 1397 1432
e 1397 1433
e 1397 1434
e 1397 1435
e 1397 1436
e 1397 1437
e 1397 1438
e 1397 1439
e 1397 1440
e 1397 1441
e 1397 1442
e 1397 1443
e 1397 1444
e 1397 1445
e 1397 1446
e 1397 1447
e 1397 1448
e 1397 1449
e 1397 1450
e 1397 1451
e 1397 1452
e 1453 1454
e 1453 1455
e 1453 1456
e 1453 1457
e 1453 1458
e 1453 1459
e 1453 1460
e 1453 1461
e 1453 1462
e 1453 1463
e 1453 1464
e 1453 1465
e 1453 1466
e 1453 1467
e 1453 1468
e 1453 1469
e 1453 1470
e 1453 1471
e 1453 1472
e 1453 1473
e 1453 1474
e 1453 1475
e 1453 1476
e 1453 1477
e 1453 1478
e 1453 1479
e 1453 1480
e 1453 1481
e 1453 1482
e 1453 1483
e 1453 1484
e 1453 1485
e 1453 1486
e 1453 1487
e 1453 1488
e 1453 1489
e 1453 1490
e 1453 1491
e 1453 1492
e 1453 1493
e 1453 1494
e 1453 1495
e 1453 1496
e 1453 1497
e 1453 1498
e 1453 1499
e 1453 1500
e 1453 1501
e 1453 1502
e 1453 1503
e 1453 1504
e 1453 1505
e 1453 1506
e 1453 1507
e 1453 1508
e 1453 1509
e 1453 1510
e 1453 1511
e 1453 1512
e 1453 1513
e 1453 1514
e 1453 1515
e 1453 1516
e 1453 1517
e 1453 1518
e 1453 1519
e 1453 1520
e 1453 1521
e 1453 1522
e 1453 1523
e 1453 1524
e 1525 1526
e 1525 1527
e 1525 1528
e 1525 1529
e 1525 1530
e 1525 1531
e 1525 1532
e 1525 1533
e 1525 1534
e 1525 1535
e 1525 1536
e 1525 1537
e 1525 1538
e 1525 1539
e 1525 1540
e 1525 1541
e 1525 1542
e 1525 1543
e 1525 1544
e 1525 1545
e 1525 1546
e 1525 1547
e 1525 1548
e 1525 1549
e 1525 1550
e 1525 1551
e 1525 1552
e 1525 1553
e 1525 1554
e 1525 1555
e 1525 1556
e 1525 1557
e 1525 1558
e 1525 1559
e 1525 1560
e 1525 1561
e 1525 1562
e 1525 1563
e 1525 1564
e 1525 1565
e 1525 1566
e 1525 1567
e 1525 1568
e 1525 1569
e 1525 1570
e 1525 1571
e 1525 1572
e 1525 1573
e 1525 1574
e 1525 1575
e 1525 1576
e 1525 1577
e 1525 1578
e 1525 1579
e 1525 1580
e 1525 1581
e 1525 1582
e 1525 1583
e 1525 1584
e 1525 1585
e 1525 1586
e 1525 1587
e 1525 1588
e 1525 1589
e 1525 1590
e 1525 1591
e 1525 1592
e 1525 1593
e 1525 1594
e 1525 1595
e 1525 1596
e 1525 1597
e 1525 1598
e 1525 1599
e 1525 1600
e 1525 1601
e 1602 1603
e 1602 1604
e 1602 1605
e 1602 1606
e 1602 1607
e 1602 1608
e 1602 1609
e 1602 1610
e 1602 1611
e 1602 1612
e 1602 1613
e 1602 1614
e 1602 1615
e 1602 1616
e 1602 1617
e 1602 1618
e 1602 1619
e 1602 1620
e 1602 1621
e 1602 1622
e 1602 1623
e 1602 1624
e 1602 1625
e 1602 1626
e 1602 1627
e 1602 1628
